Mack/Bortfeldt(2008)
Bin-Packing-Problem
BP-RG/SBSBPP/SSSCSP
Testcase-ID	7
Problem-ID	36
no_item_types	10
no_items	1282
CONTAINER_DATA (l,w,h)	587	233	1
ITEMS_DATA:
Type	x	y	z	no_items
1	47	44	1	125
2	37	37	1	115
3	35	30	1	137
4	43	22	1	126
5	35	27	1	127
6	33	28	1	125
7	32	25	1	121
8	39	20	1	140
9	31	23	1	133
10	22	17	1	133
